50

100 34 319
99 37 423
97 7 363
97 16 398
96 44 321
96 31 378
95 29 357
92 39 349
92 19 400
90 32 472
90 30 328
88 1 317
87 19 261
87 37 268
85 36 449
84 31 469
83 29 398
82 35 250
81 31 466
79 37 404
74 4 457
68 19 301
68 17 330
63 22 365
59 14 232
58 6 220
56 21 291
55 15 206
55 4 299
51 19 458
50 2 323
49 8 416
49 11 229
49 18 222
47 17 368
44 20 280
44 13 453
42 18 249
39 1 338
37 1 256
37 8 259
34 14 429
34 5 469
34 17 414
33 9 401
33 10 389
31 15 217
30 8 140
30 7 268
30 1 283
